# CELL file written 15:07:43 (GMT-0.0) 17th November 2020 from run ./castep-pymuonsuite-test-data/muon-airss-out-castep/castep/Si2_11/Si2_11

%BLOCK lattice_cart
   ANG
       2.69546400000000        2.69546400000000        0.00000000000000    
       2.69546400000000        0.00000000000000        2.69546400000000    
       0.00000000000000        2.69546400000000        2.69546400000000    
%ENDBLOCK lattice_cart

%BLOCK cell_constraints
      0   0   0
      0   0   0
%ENDBLOCK cell_constraints

%BLOCK positions_frac
   Si            -0.041106135144795       0.081892214520250      -0.030584358913594
   Si             0.254729252729633       0.193809448821848       0.266207962684069
   H:mu           0.983336478239851       0.637656667542677       0.099153822305332
%ENDBLOCK positions_frac

FIX_COM : true

%BLOCK species_mass
   AMU
   H:mu      0.1134289259    
%ENDBLOCK species_mass

%BLOCK species_gamma
   radsectesla
   H:mu       851615456.6    
%ENDBLOCK species_gamma

%BLOCK species_pot
   Si      3|1.8|5|6|7|30:31:32
   H:mu    1|0.6|13|15|17|10(qc=8)
%ENDBLOCK species_pot

SYMMETRY_TOL :     0.001000

%BLOCK symmetry_ops
# Symm. op. 1       E
          1.000000000000000       0.000000000000000       0.000000000000000
          0.000000000000000       1.000000000000000       0.000000000000000
          0.000000000000000       0.000000000000000       1.000000000000000
          0.000000000000000       0.000000000000000       0.000000000000000
%ENDBLOCK symmetry_ops

kpoint_mp_grid :    1   1   1

