Geometry = GenFormat {
7  C
C    H
1      1      0.232775970000000      0.000000000000000      0.697276650000000
2      1     -0.079133840000000      0.000000000000000     -0.735385850000000
3      2     -0.155205310000000      0.888357390000000      1.202027300000000
4      2     -0.155205310000000     -0.888357390000000      1.202027300000000
5      2     -0.083036310000000      0.928731660000000     -1.293891860000000
6      2     -0.083036310000000     -0.928731660000000     -1.293891860000000
7      2      1.286695488874614     -0.000000000048186      2.511401983418098
}
Hamiltonian = DFTB {
  HubbardDerivs = {
    C = -0.1492
    H = -0.1857
  }
  MaxAngularMomentum = {
    C = p
    H = s
  }
  SCC = Yes
  SlaterKosterFiles = Type2FileNames {
    Prefix = /home/lauramurgatroyd/miniconda3/envs/muon_spectroscopy_wsl/lib/python3.8/site-packages/pymuonsuite/data/dftb_pars/3ob-3-1/3ob-3-1/
    Separator = "-"
    Suffix = ".skf"
    LowerCaseTypeName = No
  }
  SpinConstants = {
    C = {
-0.031 -0.025
-0.025 -0.023
    }
    H = {
-0.072
    }
    ShellResolvedSpin = Yes
  }
  SpinPolarisation = Colinear {
    InitialSpins = {}
    UnpairedElectrons = 1
    RelaxTotalSpin = No
  }
  ThirdOrderFull = Yes
  PolynomialRepulsive = {}
  ShellResolvedSCC = No
  OldSKInterpolation = No
  RangeSeparated = None {}
  ReadInitialCharges = No
  InitialCharges = {}
  SCCTolerance = 1.0000000000000001E-005
  HCorrection = None {}
  ElectricField = {}
  Solver = RelativelyRobust {}
  Charge = 0.0000000000000000
  MaxSCCIterations = 100
  OnSiteCorrection = {}
  Dispersion = {}
  Solvation = {}
  Electrostatics = GammaFunctional {}
  ThirdOrder = No
  Differentiation = FiniteDiff {
    Delta = 1.2207031250000000E-004
  }
  ForceEvaluation = "Traditional"
  Mixer = Broyden {
    MixingParameter = 0.20000000000000001
    InverseJacobiWeight = 1.0000000000000000E-002
    MinimalWeight = 1.0000000000000000
    MaximalWeight = 100000.00000000000
    WeightFactor = 1.0000000000000000E-002
  }
  Filling = Fermi {
    Temperature = 0.0000000000000000
  }
}
Options = {
  WriteResultsTag = Yes
  WriteDetailedOut = Yes
  WriteAutotestTag = No
  WriteDetailedXML = No
  RestartFrequency = 20
  RandomSeed = 0
  WriteHS = No
  WriteRealHS = No
  MinimiseMemoryUsage = No
  ShowFoldedCoords = No
  TimingVerbosity = 1
  WriteChargesAsText = No
}
ParserOptions = {
  IgnoreUnprocessedNodes = Yes
  ParserVersion = 8
  WriteHSDInput = Yes
  StopAfterParsing = No
}
Analysis = {
  CalculateForces = Yes
  ProjectStates = {}
  WriteEigenvectors = No
  WriteBandOut = Yes
  MullikenAnalysis = Yes
  AtomResolvedEnergies = No
}
Driver = {}
ExcitedState = {}
Reks = None {}
