Geometry = GenFormat {
7  C
C    H
1      1      0.232775970233676      0.000000000000440      0.697276654023051
2      1     -0.079133842353857     -0.000000000000096     -0.735385848255959
3      2     -0.155205312345435      0.888357392443103      1.202027295837828
4      2     -0.155205312342459     -0.888357392443973      1.202027295838578
5      2     -0.083036312707434      0.928731657996102     -1.293891861176065
6      2     -0.083036312705480     -0.928731657997391     -1.293891861176867
7      2      1.322841122220987      0.000000000001814      0.899318324909431
}
Hamiltonian = DFTB {
  HubbardDerivs = {
    C = -0.1492
    H = -0.1857
  }
  MaxAngularMomentum = {
    C = p
    H = s
  }
  SCC = Yes
  SlaterKosterFiles = Type2FileNames {
    Prefix = /home/lauramurgatroyd/miniconda3/envs/muon_spectroscopy_wsl/lib/python3.8/site-packages/pymuonsuite/data/dftb_pars/3ob-3-1/3ob-3-1/
    Separator = "-"
    Suffix = ".skf"
    LowerCaseTypeName = No
  }
  ThirdOrderFull = Yes
  PolynomialRepulsive = {}
  ShellResolvedSCC = No
  OldSKInterpolation = No
  RangeSeparated = None {}
  ReadInitialCharges = No
  InitialCharges = {}
  SCCTolerance = 1.0000000000000001E-005
  HCorrection = None {}
  SpinPolarisation = {}
  ElectricField = {}
  Solver = RelativelyRobust {}
  Charge = 0.0000000000000000
  MaxSCCIterations = 100
  OnSiteCorrection = {}
  Dispersion = {}
  Solvation = {}
  Electrostatics = GammaFunctional {}
  ThirdOrder = No
  Differentiation = FiniteDiff {
    Delta = 1.2207031250000000E-004
  }
  ForceEvaluation = "Traditional"
  Mixer = Broyden {
    MixingParameter = 0.20000000000000001
    InverseJacobiWeight = 1.0000000000000000E-002
    MinimalWeight = 1.0000000000000000
    MaximalWeight = 100000.00000000000
    WeightFactor = 1.0000000000000000E-002
  }
  Filling = Fermi {
    Temperature = 0.0000000000000000
  }
}
Options = {
  WriteResultsTag = Yes
  WriteDetailedOut = Yes
  WriteAutotestTag = No
  WriteDetailedXML = No
  RestartFrequency = 20
  RandomSeed = 0
  WriteHS = No
  WriteRealHS = No
  MinimiseMemoryUsage = No
  ShowFoldedCoords = No
  TimingVerbosity = 1
  WriteChargesAsText = No
}
ParserOptions = {
  IgnoreUnprocessedNodes = Yes
  ParserVersion = 8
  WriteHSDInput = Yes
  StopAfterParsing = No
}
Analysis = {
  CalculateForces = Yes
  ProjectStates = {}
  WriteEigenvectors = No
  WriteBandOut = Yes
  MullikenAnalysis = Yes
  AtomResolvedEnergies = No
}
Driver = {}
ExcitedState = {}
Reks = None {}
