Geometry = GenFormat { 
    <<< "geo_end.gen" 
} 
 
Hamiltonian = DFTB{ 
   DampXH = Yes 
   DampXHExponent = 4.0 
   HubbardDerivs = { 
      Br = -0.0573 
      C = -0.1492 
      Ca = -0.034 
      Cl = -0.0697 
      F = -0.1623 
      H = -0.1857 
      I = -0.0433 
      K = -0.0339 
      Mg = -0.02 
      N = -0.1535 
      Na = -0.0454 
      O = -0.1575 
      P = -0.14 
      S = -0.11 
      Zn = -0.03 
   } 
   MaxAngularMomentum = { 
      Br = d 
      C = p 
      Ca = p 
      Cl = d 
      F = p 
      H = s 
      I = d 
      K = p 
      Mg = p 
      N = p 
      Na = p 
      O = p 
      P = p 
      S = d 
      Zn = d 
   } 
   OrbitalResolvedSCC = No 
   SCC = Yes 
   SlaterKosterFiles = Type2FileNames{ 
      Prefix = /home/lauramurgatroyd/miniconda3/envs/muon_spectroscopy_wsl/lib/python3.8/site-packages/pymuonsuite/data/dftb_pars/3ob-3-1/3ob-3-1/ 
      Separator = "-" 
      Suffix = ".skf" 
   } 
   SpinConstants = { 
      C = { -0.031 -0.025
 -0.025 -0.023

} 
      H = {   -0.072

} 
      N = { -0.033 -0.027
 -0.027 -0.026

} 
      O = { -0.035 -0.030
 -0.030 -0.028

} 
      S = { -0.021 -0.017 0.000
 -0.017 -0.016 0.000
 0.000 0.000 -0.080

} 
      ShellResolvedSpin = Yes 
   } 
   SpinPolarisation = Colinear{ 
      InitialSpins = { 
         Atoms = -1 
         SpinPerAtom = 1 
   } 
      UnpairedElectrons = 1 
   } 
   ThirdOrderFull = Yes 
   } 
Options { 
   WriteResultsTag = Yes 
} 
ParserOptions { 
   IgnoreUnprocessedNodes = Yes  
} 
Analysis { 
   CalculateForces = Yes  
} 
