%block lattice_cart
2.6954645 2.6954645 0.0
2.6954645 0.0 2.6954645
0.0 2.6954645 2.6954645
%endblock lattice_cart

%block positions_frac
Si 0.00 0.00 0.00
Si 0.25 0.25 0.25
%endblock positions_frac

%block kpoints_list
  0.25 0.25 0.25 0.25
  0.5  0.5  0.25 0.75
%endblock kpoints_list

symmetry_generate
